TCS_Benchmarks/redos_fix/corpus1_output_distinct_3426_3425_16_0.smt2
(set-logic QF_S)
(declare-const x String)
(assert (str.in.re x (re.inter (re.* (re.union (re.range "\u{00}" "\u{09}") (re.range "\u{0b}" "\u{0c}") (re.range "\u{0e}" "\u{84}") (re.range "\u{86}" "\u{ff}")) )  (re.++ (re.* (re.union (re.range "\u{00}" "\u{09}") (re.range "\u{0b}" "\u{0c}") (re.range "\u{0e}" "\u{84}") (re.range "\u{86}" "\u{ff}")) ) (re.++  (re.++  (str.to.re "\u{52}") (re.++  (str.to.re "\u{65}") (re.++  (str.to.re "\u{63}") (re.++  (str.to.re "\u{65}") (re.++  (str.to.re "\u{69}") (re.++  (str.to.re "\u{76}") (re.++  (str.to.re "\u{65}") (re.++  (str.to.re "\u{64}") (re.++  (str.to.re "\u{20}") (re.++  (str.to.re "\u{6e}") (re.++  (str.to.re "\u{65}") (re.++  (str.to.re "\u{77}") (re.++  (str.to.re "\u{20}") (re.++  (str.to.re "\u{63}") (re.++  (str.to.re "\u{6c}") (re.++  (str.to.re "\u{75}") (re.++  (str.to.re "\u{73}") (re.++  (str.to.re "\u{74}") (re.++  (str.to.re "\u{65}") (re.++  (str.to.re "\u{72}") (re.++  (str.to.re "\u{20}") (re.++  (str.to.re "\u{76}") (re.++  (str.to.re "\u{69}") (re.++  (str.to.re "\u{65}") (re.++  (str.to.re "\u{77}") (re.++ (re.* (re.union (re.range "\u{00}" "\u{09}") (re.range "\u{0b}" "\u{0c}") (re.range "\u{0e}" "\u{84}") (re.range "\u{86}" "\u{ff}")) ) (re.++  (str.to.re "\u{7c}") (re.++ (re.+ (re.range "\u{30}" "\u{39}") ) (re.++ (re.union (re.range "\u{00}" "\u{09}") (re.range "\u{0b}" "\u{0c}") (re.range "\u{0e}" "\u{84}") (re.range "\u{86}" "\u{ff}")) (re.++  (str.to.re "\u{20}")  (str.to.re "\u{5b}"))))))))))))))))))))))))))))))) (re.* (re.union (re.range "\u{00}" "\u{09}") (re.range "\u{0b}" "\u{0c}") (re.range "\u{0e}" "\u{84}") (re.range "\u{86}" "\u{ff}")) ))) (re.* (re.union (re.range "\u{00}" "\u{09}") (re.range "\u{0b}" "\u{0c}") (re.range "\u{0e}" "\u{84}") (re.range "\u{86}" "\u{ff}")) ) )))
(check-sat)
(get-model)