TCS_Benchmarks/redos_fix/corpus1_output_distinct_3426_3425_16_0.txt
.*
(.*)(Received new cluster view.*\|([0-9]+). \[)(.*)
.*